c File: flat175_3_0.col
c
c SOURCE: Joseph Culberson (joe@cs.ualberta.ca)
c DESCRIPTION: Quasi-random coloring problem
c              generated with flatness = 0
c                             probability = 0.041
c                             known coloring = 3
c                             random seed = 1020
c              Creation Date:  Wed Feb 24 10:54:55 1999
c Maximum degree = 8 Minimum degree = 1
c COLOR VERIFICATION: Using the permuted order
c under simple greedy yields the specified
c coloring number
c Color = 3 specified partitions = 3
c p edge 175 417
c cnf created by edge2cnf
p cnf 525 1951
-1 -2 0
-1 -3 0
-2 -3 0
1 2 3 0
-4 -5 0
-4 -6 0
-5 -6 0
4 5 6 0
-7 -8 0
-7 -9 0
-8 -9 0
7 8 9 0
-10 -11 0
-10 -12 0
-11 -12 0
10 11 12 0
-13 -14 0
-13 -15 0
-14 -15 0
13 14 15 0
-16 -17 0
-16 -18 0
-17 -18 0
16 17 18 0
-19 -20 0
-19 -21 0
-20 -21 0
19 20 21 0
-22 -23 0
-22 -24 0
-23 -24 0
22 23 24 0
-25 -26 0
-25 -27 0
-26 -27 0
25 26 27 0
-28 -29 0
-28 -30 0
-29 -30 0
28 29 30 0
-31 -32 0
-31 -33 0
-32 -33 0
31 32 33 0
-34 -35 0
-34 -36 0
-35 -36 0
34 35 36 0
-37 -38 0
-37 -39 0
-38 -39 0
37 38 39 0
-40 -41 0
-40 -42 0
-41 -42 0
40 41 42 0
-43 -44 0
-43 -45 0
-44 -45 0
43 44 45 0
-46 -47 0
-46 -48 0
-47 -48 0
46 47 48 0
-49 -50 0
-49 -51 0
-50 -51 0
49 50 51 0
-52 -53 0
-52 -54 0
-53 -54 0
52 53 54 0
-55 -56 0
-55 -57 0
-56 -57 0
55 56 57 0
-58 -59 0
-58 -60 0
-59 -60 0
58 59 60 0
-61 -62 0
-61 -63 0
-62 -63 0
61 62 63 0
-64 -65 0
-64 -66 0
-65 -66 0
64 65 66 0
-67 -68 0
-67 -69 0
-68 -69 0
67 68 69 0
-70 -71 0
-70 -72 0
-71 -72 0
70 71 72 0
-73 -74 0
-73 -75 0
-74 -75 0
73 74 75 0
-76 -77 0
-76 -78 0
-77 -78 0
76 77 78 0
-79 -80 0
-79 -81 0
-80 -81 0
79 80 81 0
-82 -83 0
-82 -84 0
-83 -84 0
82 83 84 0
-85 -86 0
-85 -87 0
-86 -87 0
85 86 87 0
-88 -89 0
-88 -90 0
-89 -90 0
88 89 90 0
-91 -92 0
-91 -93 0
-92 -93 0
91 92 93 0
-94 -95 0
-94 -96 0
-95 -96 0
94 95 96 0
-97 -98 0
-97 -99 0
-98 -99 0
97 98 99 0
-100 -101 0
-100 -102 0
-101 -102 0
100 101 102 0
-103 -104 0
-103 -105 0
-104 -105 0
103 104 105 0
-106 -107 0
-106 -108 0
-107 -108 0
106 107 108 0
-109 -110 0
-109 -111 0
-110 -111 0
109 110 111 0
-112 -113 0
-112 -114 0
-113 -114 0
112 113 114 0
-115 -116 0
-115 -117 0
-116 -117 0
115 116 117 0
-118 -119 0
-118 -120 0
-119 -120 0
118 119 120 0
-121 -122 0
-121 -123 0
-122 -123 0
121 122 123 0
-124 -125 0
-124 -126 0
-125 -126 0
124 125 126 0
-127 -128 0
-127 -129 0
-128 -129 0
127 128 129 0
-130 -131 0
-130 -132 0
-131 -132 0
130 131 132 0
-133 -134 0
-133 -135 0
-134 -135 0
133 134 135 0
-136 -137 0
-136 -138 0
-137 -138 0
136 137 138 0
-139 -140 0
-139 -141 0
-140 -141 0
139 140 141 0
-142 -143 0
-142 -144 0
-143 -144 0
142 143 144 0
-145 -146 0
-145 -147 0
-146 -147 0
145 146 147 0
-148 -149 0
-148 -150 0
-149 -150 0
148 149 150 0
-151 -152 0
-151 -153 0
-152 -153 0
151 152 153 0
-154 -155 0
-154 -156 0
-155 -156 0
154 155 156 0
-157 -158 0
-157 -159 0
-158 -159 0
157 158 159 0
-160 -161 0
-160 -162 0
-161 -162 0
160 161 162 0
-163 -164 0
-163 -165 0
-164 -165 0
163 164 165 0
-166 -167 0
-166 -168 0
-167 -168 0
166 167 168 0
-169 -170 0
-169 -171 0
-170 -171 0
169 170 171 0
-172 -173 0
-172 -174 0
-173 -174 0
172 173 174 0
-175 -176 0
-175 -177 0
-176 -177 0
175 176 177 0
-178 -179 0
-178 -180 0
-179 -180 0
178 179 180 0
-181 -182 0
-181 -183 0
-182 -183 0
181 182 183 0
-184 -185 0
-184 -186 0
-185 -186 0
184 185 186 0
-187 -188 0
-187 -189 0
-188 -189 0
187 188 189 0
-190 -191 0
-190 -192 0
-191 -192 0
190 191 192 0
-193 -194 0
-193 -195 0
-194 -195 0
193 194 195 0
-196 -197 0
-196 -198 0
-197 -198 0
196 197 198 0
-199 -200 0
-199 -201 0
-200 -201 0
199 200 201 0
-202 -203 0
-202 -204 0
-203 -204 0
202 203 204 0
-205 -206 0
-205 -207 0
-206 -207 0
205 206 207 0
-208 -209 0
-208 -210 0
-209 -210 0
208 209 210 0
-211 -212 0
-211 -213 0
-212 -213 0
211 212 213 0
-214 -215 0
-214 -216 0
-215 -216 0
214 215 216 0
-217 -218 0
-217 -219 0
-218 -219 0
217 218 219 0
-220 -221 0
-220 -222 0
-221 -222 0
220 221 222 0
-223 -224 0
-223 -225 0
-224 -225 0
223 224 225 0
-226 -227 0
-226 -228 0
-227 -228 0
226 227 228 0
-229 -230 0
-229 -231 0
-230 -231 0
229 230 231 0
-232 -233 0
-232 -234 0
-233 -234 0
232 233 234 0
-235 -236 0
-235 -237 0
-236 -237 0
235 236 237 0
-238 -239 0
-238 -240 0
-239 -240 0
238 239 240 0
-241 -242 0
-241 -243 0
-242 -243 0
241 242 243 0
-244 -245 0
-244 -246 0
-245 -246 0
244 245 246 0
-247 -248 0
-247 -249 0
-248 -249 0
247 248 249 0
-250 -251 0
-250 -252 0
-251 -252 0
250 251 252 0
-253 -254 0
-253 -255 0
-254 -255 0
253 254 255 0
-256 -257 0
-256 -258 0
-257 -258 0
256 257 258 0
-259 -260 0
-259 -261 0
-260 -261 0
259 260 261 0
-262 -263 0
-262 -264 0
-263 -264 0
262 263 264 0
-265 -266 0
-265 -267 0
-266 -267 0
265 266 267 0
-268 -269 0
-268 -270 0
-269 -270 0
268 269 270 0
-271 -272 0
-271 -273 0
-272 -273 0
271 272 273 0
-274 -275 0
-274 -276 0
-275 -276 0
274 275 276 0
-277 -278 0
-277 -279 0
-278 -279 0
277 278 279 0
-280 -281 0
-280 -282 0
-281 -282 0
280 281 282 0
-283 -284 0
-283 -285 0
-284 -285 0
283 284 285 0
-286 -287 0
-286 -288 0
-287 -288 0
286 287 288 0
-289 -290 0
-289 -291 0
-290 -291 0
289 290 291 0
-292 -293 0
-292 -294 0
-293 -294 0
292 293 294 0
-295 -296 0
-295 -297 0
-296 -297 0
295 296 297 0
-298 -299 0
-298 -300 0
-299 -300 0
298 299 300 0
-301 -302 0
-301 -303 0
-302 -303 0
301 302 303 0
-304 -305 0
-304 -306 0
-305 -306 0
304 305 306 0
-307 -308 0
-307 -309 0
-308 -309 0
307 308 309 0
-310 -311 0
-310 -312 0
-311 -312 0
310 311 312 0
-313 -314 0
-313 -315 0
-314 -315 0
313 314 315 0
-316 -317 0
-316 -318 0
-317 -318 0
316 317 318 0
-319 -320 0
-319 -321 0
-320 -321 0
319 320 321 0
-322 -323 0
-322 -324 0
-323 -324 0
322 323 324 0
-325 -326 0
-325 -327 0
-326 -327 0
325 326 327 0
-328 -329 0
-328 -330 0
-329 -330 0
328 329 330 0
-331 -332 0
-331 -333 0
-332 -333 0
331 332 333 0
-334 -335 0
-334 -336 0
-335 -336 0
334 335 336 0
-337 -338 0
-337 -339 0
-338 -339 0
337 338 339 0
-340 -341 0
-340 -342 0
-341 -342 0
340 341 342 0
-343 -344 0
-343 -345 0
-344 -345 0
343 344 345 0
-346 -347 0
-346 -348 0
-347 -348 0
346 347 348 0
-349 -350 0
-349 -351 0
-350 -351 0
349 350 351 0
-352 -353 0
-352 -354 0
-353 -354 0
352 353 354 0
-355 -356 0
-355 -357 0
-356 -357 0
355 356 357 0
-358 -359 0
-358 -360 0
-359 -360 0
358 359 360 0
-361 -362 0
-361 -363 0
-362 -363 0
361 362 363 0
-364 -365 0
-364 -366 0
-365 -366 0
364 365 366 0
-367 -368 0
-367 -369 0
-368 -369 0
367 368 369 0
-370 -371 0
-370 -372 0
-371 -372 0
370 371 372 0
-373 -374 0
-373 -375 0
-374 -375 0
373 374 375 0
-376 -377 0
-376 -378 0
-377 -378 0
376 377 378 0
-379 -380 0
-379 -381 0
-380 -381 0
379 380 381 0
-382 -383 0
-382 -384 0
-383 -384 0
382 383 384 0
-385 -386 0
-385 -387 0
-386 -387 0
385 386 387 0
-388 -389 0
-388 -390 0
-389 -390 0
388 389 390 0
-391 -392 0
-391 -393 0
-392 -393 0
391 392 393 0
-394 -395 0
-394 -396 0
-395 -396 0
394 395 396 0
-397 -398 0
-397 -399 0
-398 -399 0
397 398 399 0
-400 -401 0
-400 -402 0
-401 -402 0
400 401 402 0
-403 -404 0
-403 -405 0
-404 -405 0
403 404 405 0
-406 -407 0
-406 -408 0
-407 -408 0
406 407 408 0
-409 -410 0
-409 -411 0
-410 -411 0
409 410 411 0
-412 -413 0
-412 -414 0
-413 -414 0
412 413 414 0
-415 -416 0
-415 -417 0
-416 -417 0
415 416 417 0
-418 -419 0
-418 -420 0
-419 -420 0
418 419 420 0
-421 -422 0
-421 -423 0
-422 -423 0
421 422 423 0
-424 -425 0
-424 -426 0
-425 -426 0
424 425 426 0
-427 -428 0
-427 -429 0
-428 -429 0
427 428 429 0
-430 -431 0
-430 -432 0
-431 -432 0
430 431 432 0
-433 -434 0
-433 -435 0
-434 -435 0
433 434 435 0
-436 -437 0
-436 -438 0
-437 -438 0
436 437 438 0
-439 -440 0
-439 -441 0
-440 -441 0
439 440 441 0
-442 -443 0
-442 -444 0
-443 -444 0
442 443 444 0
-445 -446 0
-445 -447 0
-446 -447 0
445 446 447 0
-448 -449 0
-448 -450 0
-449 -450 0
448 449 450 0
-451 -452 0
-451 -453 0
-452 -453 0
451 452 453 0
-454 -455 0
-454 -456 0
-455 -456 0
454 455 456 0
-457 -458 0
-457 -459 0
-458 -459 0
457 458 459 0
-460 -461 0
-460 -462 0
-461 -462 0
460 461 462 0
-463 -464 0
-463 -465 0
-464 -465 0
463 464 465 0
-466 -467 0
-466 -468 0
-467 -468 0
466 467 468 0
-469 -470 0
-469 -471 0
-470 -471 0
469 470 471 0
-472 -473 0
-472 -474 0
-473 -474 0
472 473 474 0
-475 -476 0
-475 -477 0
-476 -477 0
475 476 477 0
-478 -479 0
-478 -480 0
-479 -480 0
478 479 480 0
-481 -482 0
-481 -483 0
-482 -483 0
481 482 483 0
-484 -485 0
-484 -486 0
-485 -486 0
484 485 486 0
-487 -488 0
-487 -489 0
-488 -489 0
487 488 489 0
-490 -491 0
-490 -492 0
-491 -492 0
490 491 492 0
-493 -494 0
-493 -495 0
-494 -495 0
493 494 495 0
-496 -497 0
-496 -498 0
-497 -498 0
496 497 498 0
-499 -500 0
-499 -501 0
-500 -501 0
499 500 501 0
-502 -503 0
-502 -504 0
-503 -504 0
502 503 504 0
-505 -506 0
-505 -507 0
-506 -507 0
505 506 507 0
-508 -509 0
-508 -510 0
-509 -510 0
508 509 510 0
-511 -512 0
-511 -513 0
-512 -513 0
511 512 513 0
-514 -515 0
-514 -516 0
-515 -516 0
514 515 516 0
-517 -518 0
-517 -519 0
-518 -519 0
517 518 519 0
-520 -521 0
-520 -522 0
-521 -522 0
520 521 522 0
-523 -524 0
-523 -525 0
-524 -525 0
523 524 525 0
-127 -1 0
-128 -2 0
-129 -3 0
-304 -1 0
-305 -2 0
-306 -3 0
-310 -1 0
-311 -2 0
-312 -3 0
-55 -4 0
-56 -5 0
-57 -6 0
-88 -4 0
-89 -5 0
-90 -6 0
-322 -4 0
-323 -5 0
-324 -6 0
-166 -7 0
-167 -8 0
-168 -9 0
-193 -7 0
-194 -8 0
-195 -9 0
-235 -7 0
-236 -8 0
-237 -9 0
-247 -7 0
-248 -8 0
-249 -9 0
-265 -7 0
-266 -8 0
-267 -9 0
-112 -10 0
-113 -11 0
-114 -12 0
-262 -10 0
-263 -11 0
-264 -12 0
-334 -10 0
-335 -11 0
-336 -12 0
-505 -10 0
-506 -11 0
-507 -12 0
-37 -13 0
-38 -14 0
-39 -15 0
-316 -13 0
-317 -14 0
-318 -15 0
-403 -13 0
-404 -14 0
-405 -15 0
-457 -13 0
-458 -14 0
-459 -15 0
-460 -13 0
-461 -14 0
-462 -15 0
-49 -16 0
-50 -17 0
-51 -18 0
-100 -16 0
-101 -17 0
-102 -18 0
-214 -16 0
-215 -17 0
-216 -18 0
-394 -16 0
-395 -17 0
-396 -18 0
-457 -16 0
-458 -17 0
-459 -18 0
-172 -19 0
-173 -20 0
-174 -21 0
-241 -19 0
-242 -20 0
-243 -21 0
-427 -19 0
-428 -20 0
-429 -21 0
-130 -22 0
-131 -23 0
-132 -24 0
-142 -25 0
-143 -26 0
-144 -27 0
-301 -25 0
-302 -26 0
-303 -27 0
-337 -25 0
-338 -26 0
-339 -27 0
-40 -28 0
-41 -29 0
-42 -30 0
-49 -28 0
-50 -29 0
-51 -30 0
-343 -28 0
-344 -29 0
-345 -30 0
-361 -28 0
-362 -29 0
-363 -30 0
-379 -28 0
-380 -29 0
-381 -30 0
-475 -28 0
-476 -29 0
-477 -30 0
-121 -31 0
-122 -32 0
-123 -33 0
-139 -31 0
-140 -32 0
-141 -33 0
-220 -31 0
-221 -32 0
-222 -33 0
-307 -31 0
-308 -32 0
-309 -33 0
-394 -31 0
-395 -32 0
-396 -33 0
-421 -31 0
-422 -32 0
-423 -33 0
-469 -31 0
-470 -32 0
-471 -33 0
-88 -34 0
-89 -35 0
-90 -36 0
-139 -34 0
-140 -35 0
-141 -36 0
-190 -34 0
-191 -35 0
-192 -36 0
-229 -34 0
-230 -35 0
-231 -36 0
-277 -34 0
-278 -35 0
-279 -36 0
-430 -34 0
-431 -35 0
-432 -36 0
-55 -40 0
-56 -41 0
-57 -42 0
-58 -40 0
-59 -41 0
-60 -42 0
-85 -40 0
-86 -41 0
-87 -42 0
-193 -40 0
-194 -41 0
-195 -42 0
-520 -40 0
-521 -41 0
-522 -42 0
-73 -43 0
-74 -44 0
-75 -45 0
-136 -43 0
-137 -44 0
-138 -45 0
-178 -43 0
-179 -44 0
-180 -45 0
-352 -43 0
-353 -44 0
-354 -45 0
-502 -43 0
-503 -44 0
-504 -45 0
-76 -46 0
-77 -47 0
-78 -48 0
-112 -46 0
-113 -47 0
-114 -48 0
-205 -46 0
-206 -47 0
-207 -48 0
-283 -46 0
-284 -47 0
-285 -48 0
-319 -46 0
-320 -47 0
-321 -48 0
-442 -46 0
-443 -47 0
-444 -48 0
-199 -49 0
-200 -50 0
-201 -51 0
-157 -52 0
-158 -53 0
-159 -54 0
-211 -52 0
-212 -53 0
-213 -54 0
-220 -52 0
-221 -53 0
-222 -54 0
-223 -52 0
-224 -53 0
-225 -54 0
-226 -52 0
-227 -53 0
-228 -54 0
-250 -52 0
-251 -53 0
-252 -54 0
-442 -52 0
-443 -53 0
-444 -54 0
-73 -55 0
-74 -56 0
-75 -57 0
-172 -55 0
-173 -56 0
-174 -57 0
-271 -55 0
-272 -56 0
-273 -57 0
-109 -58 0
-110 -59 0
-111 -60 0
-292 -58 0
-293 -59 0
-294 -60 0
-310 -58 0
-311 -59 0
-312 -60 0
-430 -58 0
-431 -59 0
-432 -60 0
-250 -61 0
-251 -62 0
-252 -63 0
-325 -61 0
-326 -62 0
-327 -63 0
-439 -61 0
-440 -62 0
-441 -63 0
-475 -61 0
-476 -62 0
-477 -63 0
-250 -64 0
-251 -65 0
-252 -66 0
-88 -67 0
-89 -68 0
-90 -69 0
-424 -67 0
-425 -68 0
-426 -69 0
-448 -67 0
-449 -68 0
-450 -69 0
-460 -67 0
-461 -68 0
-462 -69 0
-517 -67 0
-518 -68 0
-519 -69 0
-415 -70 0
-416 -71 0
-417 -72 0
-181 -73 0
-182 -74 0
-183 -75 0
-217 -73 0
-218 -74 0
-219 -75 0
-283 -76 0
-284 -77 0
-285 -78 0
-373 -76 0
-374 -77 0
-375 -78 0
-409 -76 0
-410 -77 0
-411 -78 0
-499 -76 0
-500 -77 0
-501 -78 0
-154 -79 0
-155 -80 0
-156 -81 0
-166 -79 0
-167 -80 0
-168 -81 0
-403 -79 0
-404 -80 0
-405 -81 0
-418 -79 0
-419 -80 0
-420 -81 0
-427 -79 0
-428 -80 0
-429 -81 0
-121 -82 0
-122 -83 0
-123 -84 0
-193 -82 0
-194 -83 0
-195 -84 0
-196 -82 0
-197 -83 0
-198 -84 0
-256 -82 0
-257 -83 0
-258 -84 0
-316 -82 0
-317 -83 0
-318 -84 0
-319 -82 0
-320 -83 0
-321 -84 0
-328 -82 0
-329 -83 0
-330 -84 0
-496 -82 0
-497 -83 0
-498 -84 0
-178 -85 0
-179 -86 0
-180 -87 0
-190 -85 0
-191 -86 0
-192 -87 0
-379 -85 0
-380 -86 0
-381 -87 0
-415 -85 0
-416 -86 0
-417 -87 0
-283 -88 0
-284 -89 0
-285 -90 0
-331 -88 0
-332 -89 0
-333 -90 0
-445 -88 0
-446 -89 0
-447 -90 0
-448 -88 0
-449 -89 0
-450 -90 0
-127 -91 0
-128 -92 0
-129 -93 0
-145 -91 0
-146 -92 0
-147 -93 0
-190 -91 0
-191 -92 0
-192 -93 0
-313 -91 0
-314 -92 0
-315 -93 0
-346 -91 0
-347 -92 0
-348 -93 0
-433 -91 0
-434 -92 0
-435 -93 0
-472 -91 0
-473 -92 0
-474 -93 0
-130 -94 0
-131 -95 0
-132 -96 0
-208 -94 0
-209 -95 0
-210 -96 0
-238 -94 0
-239 -95 0
-240 -96 0
-295 -94 0
-296 -95 0
-297 -96 0
-313 -94 0
-314 -95 0
-315 -96 0
-523 -94 0
-524 -95 0
-525 -96 0
-232 -97 0
-233 -98 0
-234 -99 0
-325 -97 0
-326 -98 0
-327 -99 0
-394 -97 0
-395 -98 0
-396 -99 0
-460 -97 0
-461 -98 0
-462 -99 0
-475 -97 0
-476 -98 0
-477 -99 0
-490 -97 0
-491 -98 0
-492 -99 0
-115 -100 0
-116 -101 0
-117 -102 0
-265 -100 0
-266 -101 0
-267 -102 0
-268 -100 0
-269 -101 0
-270 -102 0
-340 -100 0
-341 -101 0
-342 -102 0
-328 -103 0
-329 -104 0
-330 -105 0
-337 -103 0
-338 -104 0
-339 -105 0
-460 -103 0
-461 -104 0
-462 -105 0
-319 -106 0
-320 -107 0
-321 -108 0
-382 -106 0
-383 -107 0
-384 -108 0
-391 -106 0
-392 -107 0
-393 -108 0
-400 -106 0
-401 -107 0
-402 -108 0
-427 -106 0
-428 -107 0
-429 -108 0
-445 -106 0
-446 -107 0
-447 -108 0
-472 -106 0
-473 -107 0
-474 -108 0
-118 -109 0
-119 -110 0
-120 -111 0
-490 -109 0
-491 -110 0
-492 -111 0
-520 -109 0
-521 -110 0
-522 -111 0
-169 -112 0
-170 -113 0
-171 -114 0
-475 -112 0
-476 -113 0
-477 -114 0
-517 -112 0
-518 -113 0
-519 -114 0
-169 -115 0
-170 -116 0
-171 -117 0
-274 -115 0
-275 -116 0
-276 -117 0
-409 -115 0
-410 -116 0
-411 -117 0
-493 -115 0
-494 -116 0
-495 -117 0
-277 -118 0
-278 -119 0
-279 -120 0
-343 -118 0
-344 -119 0
-345 -120 0
-361 -118 0
-362 -119 0
-363 -120 0
-370 -118 0
-371 -119 0
-372 -120 0
-385 -118 0
-386 -119 0
-387 -120 0
-400 -118 0
-401 -119 0
-402 -120 0
-463 -118 0
-464 -119 0
-465 -120 0
-268 -121 0
-269 -122 0
-270 -123 0
-214 -124 0
-215 -125 0
-216 -126 0
-316 -124 0
-317 -125 0
-318 -126 0
-328 -124 0
-329 -125 0
-330 -126 0
-340 -124 0
-341 -125 0
-342 -126 0
-427 -124 0
-428 -125 0
-429 -126 0
-187 -127 0
-188 -128 0
-189 -129 0
-259 -127 0
-260 -128 0
-261 -129 0
-313 -127 0
-314 -128 0
-315 -129 0
-373 -127 0
-374 -128 0
-375 -129 0
-202 -130 0
-203 -131 0
-204 -132 0
-361 -130 0
-362 -131 0
-363 -132 0
-385 -130 0
-386 -131 0
-387 -132 0
-412 -133 0
-413 -134 0
-414 -135 0
-151 -136 0
-152 -137 0
-153 -138 0
-271 -136 0
-272 -137 0
-273 -138 0
-469 -136 0
-470 -137 0
-471 -138 0
-220 -139 0
-221 -140 0
-222 -141 0
-241 -139 0
-242 -140 0
-243 -141 0
-265 -139 0
-266 -140 0
-267 -141 0
-334 -139 0
-335 -140 0
-336 -141 0
-160 -142 0
-161 -143 0
-162 -144 0
-226 -142 0
-227 -143 0
-228 -144 0
-250 -142 0
-251 -143 0
-252 -144 0
-472 -142 0
-473 -143 0
-474 -144 0
-496 -142 0
-497 -143 0
-498 -144 0
-223 -145 0
-224 -146 0
-225 -147 0
-229 -145 0
-230 -146 0
-231 -147 0
-277 -145 0
-278 -146 0
-279 -147 0
-466 -145 0
-467 -146 0
-468 -147 0
-484 -145 0
-485 -146 0
-486 -147 0
-277 -148 0
-278 -149 0
-279 -150 0
-346 -148 0
-347 -149 0
-348 -150 0
-520 -148 0
-521 -149 0
-522 -150 0
-523 -148 0
-524 -149 0
-525 -150 0
-154 -151 0
-155 -152 0
-156 -153 0
-157 -151 0
-158 -152 0
-159 -153 0
-160 -151 0
-161 -152 0
-162 -153 0
-328 -151 0
-329 -152 0
-330 -153 0
-499 -151 0
-500 -152 0
-501 -153 0
-232 -154 0
-233 -155 0
-234 -156 0
-319 -154 0
-320 -155 0
-321 -156 0
-463 -154 0
-464 -155 0
-465 -156 0
-496 -154 0
-497 -155 0
-498 -156 0
-337 -157 0
-338 -158 0
-339 -159 0
-163 -160 0
-164 -161 0
-165 -162 0
-208 -160 0
-209 -161 0
-210 -162 0
-277 -160 0
-278 -161 0
-279 -162 0
-442 -160 0
-443 -161 0
-444 -162 0
-241 -163 0
-242 -164 0
-243 -165 0
-460 -163 0
-461 -164 0
-462 -165 0
-271 -166 0
-272 -167 0
-273 -168 0
-490 -166 0
-491 -167 0
-492 -168 0
-298 -169 0
-299 -170 0
-300 -171 0
-322 -169 0
-323 -170 0
-324 -171 0
-442 -169 0
-443 -170 0
-444 -171 0
-469 -169 0
-470 -170 0
-471 -171 0
-490 -169 0
-491 -170 0
-492 -171 0
-175 -172 0
-176 -173 0
-177 -174 0
-331 -172 0
-332 -173 0
-333 -174 0
-361 -172 0
-362 -173 0
-363 -174 0
-367 -172 0
-368 -173 0
-369 -174 0
-397 -172 0
-398 -173 0
-399 -174 0
-436 -172 0
-437 -173 0
-438 -174 0
-223 -175 0
-224 -176 0
-225 -177 0
-280 -175 0
-281 -176 0
-282 -177 0
-412 -175 0
-413 -176 0
-414 -177 0
-454 -175 0
-455 -176 0
-456 -177 0
-265 -181 0
-266 -182 0
-267 -183 0
-298 -181 0
-299 -182 0
-300 -183 0
-373 -181 0
-374 -182 0
-375 -183 0
-472 -181 0
-473 -182 0
-474 -183 0
-283 -184 0
-284 -185 0
-285 -186 0
-292 -184 0
-293 -185 0
-294 -186 0
-439 -184 0
-440 -185 0
-441 -186 0
-445 -184 0
-446 -185 0
-447 -186 0
-457 -184 0
-458 -185 0
-459 -186 0
-484 -184 0
-485 -185 0
-486 -186 0
-244 -187 0
-245 -188 0
-246 -189 0
-211 -190 0
-212 -191 0
-213 -192 0
-217 -190 0
-218 -191 0
-219 -192 0
-406 -190 0
-407 -191 0
-408 -192 0
-427 -190 0
-428 -191 0
-429 -192 0
-523 -190 0
-524 -191 0
-525 -192 0
-205 -193 0
-206 -194 0
-207 -195 0
-343 -193 0
-344 -194 0
-345 -195 0
-430 -193 0
-431 -194 0
-432 -195 0
-331 -196 0
-332 -197 0
-333 -198 0
-346 -196 0
-347 -197 0
-348 -198 0
-349 -196 0
-350 -197 0
-351 -198 0
-433 -199 0
-434 -200 0
-435 -201 0
-478 -199 0
-479 -200 0
-480 -201 0
-361 -202 0
-362 -203 0
-363 -204 0
-367 -202 0
-368 -203 0
-369 -204 0
-394 -202 0
-395 -203 0
-396 -204 0
-508 -202 0
-509 -203 0
-510 -204 0
-322 -205 0
-323 -206 0
-324 -207 0
-361 -205 0
-362 -206 0
-363 -207 0
-406 -205 0
-407 -206 0
-408 -207 0
-223 -208 0
-224 -209 0
-225 -210 0
-244 -208 0
-245 -209 0
-246 -210 0
-313 -208 0
-314 -209 0
-315 -210 0
-472 -208 0
-473 -209 0
-474 -210 0
-424 -211 0
-425 -212 0
-426 -213 0
-433 -211 0
-434 -212 0
-435 -213 0
-436 -211 0
-437 -212 0
-438 -213 0
-343 -214 0
-344 -215 0
-345 -216 0
-382 -214 0
-383 -215 0
-384 -216 0
-496 -214 0
-497 -215 0
-498 -216 0
-241 -217 0
-242 -218 0
-243 -219 0
-298 -217 0
-299 -218 0
-300 -219 0
-340 -217 0
-341 -218 0
-342 -219 0
-289 -220 0
-290 -221 0
-291 -222 0
-334 -220 0
-335 -221 0
-336 -222 0
-475 -220 0
-476 -221 0
-477 -222 0
-379 -223 0
-380 -224 0
-381 -225 0
-397 -223 0
-398 -224 0
-399 -225 0
-412 -223 0
-413 -224 0
-414 -225 0
-331 -229 0
-332 -230 0
-333 -231 0
-355 -229 0
-356 -230 0
-357 -231 0
-448 -229 0
-449 -230 0
-450 -231 0
-256 -232 0
-257 -233 0
-258 -234 0
-394 -232 0
-395 -233 0
-396 -234 0
-451 -232 0
-452 -233 0
-453 -234 0
-352 -235 0
-353 -236 0
-354 -237 0
-382 -235 0
-383 -236 0
-384 -237 0
-451 -235 0
-452 -236 0
-453 -237 0
-454 -235 0
-455 -236 0
-456 -237 0
-505 -235 0
-506 -236 0
-507 -237 0
-286 -238 0
-287 -239 0
-288 -240 0
-385 -238 0
-386 -239 0
-387 -240 0
-418 -238 0
-419 -239 0
-420 -240 0
-463 -238 0
-464 -239 0
-465 -240 0
-325 -241 0
-326 -242 0
-327 -243 0
-349 -241 0
-350 -242 0
-351 -243 0
-361 -241 0
-362 -242 0
-363 -243 0
-316 -247 0
-317 -248 0
-318 -249 0
-358 -247 0
-359 -248 0
-360 -249 0
-388 -247 0
-389 -248 0
-390 -249 0
-496 -247 0
-497 -248 0
-498 -249 0
-292 -250 0
-293 -251 0
-294 -252 0
-307 -250 0
-308 -251 0
-309 -252 0
-322 -250 0
-323 -251 0
-324 -252 0
-511 -250 0
-512 -251 0
-513 -252 0
-316 -253 0
-317 -254 0
-318 -255 0
-325 -253 0
-326 -254 0
-327 -255 0
-364 -253 0
-365 -254 0
-366 -255 0
-385 -253 0
-386 -254 0
-387 -255 0
-301 -259 0
-302 -260 0
-303 -261 0
-310 -259 0
-311 -260 0
-312 -261 0
-328 -259 0
-329 -260 0
-330 -261 0
-301 -262 0
-302 -263 0
-303 -264 0
-397 -262 0
-398 -263 0
-399 -264 0
-448 -262 0
-449 -263 0
-450 -264 0
-496 -262 0
-497 -263 0
-498 -264 0
-376 -265 0
-377 -266 0
-378 -267 0
-415 -265 0
-416 -266 0
-417 -267 0
-280 -268 0
-281 -269 0
-282 -270 0
-331 -268 0
-332 -269 0
-333 -270 0
-457 -268 0
-458 -269 0
-459 -270 0
-517 -268 0
-518 -269 0
-519 -270 0
-292 -271 0
-293 -272 0
-294 -273 0
-313 -274 0
-314 -275 0
-315 -276 0
-346 -274 0
-347 -275 0
-348 -276 0
-502 -274 0
-503 -275 0
-504 -276 0
-520 -274 0
-521 -275 0
-522 -276 0
-349 -277 0
-350 -278 0
-351 -279 0
-400 -277 0
-401 -278 0
-402 -279 0
-454 -277 0
-455 -278 0
-456 -279 0
-400 -280 0
-401 -281 0
-402 -282 0
-292 -283 0
-293 -284 0
-294 -285 0
-337 -283 0
-338 -284 0
-339 -285 0
-400 -286 0
-401 -287 0
-402 -288 0
-406 -286 0
-407 -287 0
-408 -288 0
-484 -286 0
-485 -287 0
-486 -288 0
-418 -289 0
-419 -290 0
-420 -291 0
-334 -295 0
-335 -296 0
-336 -297 0
-469 -295 0
-470 -296 0
-471 -297 0
-451 -298 0
-452 -299 0
-453 -300 0
-331 -301 0
-332 -302 0
-333 -303 0
-490 -301 0
-491 -302 0
-492 -303 0
-517 -301 0
-518 -302 0
-519 -303 0
-514 -304 0
-515 -305 0
-516 -306 0
-517 -304 0
-518 -305 0
-519 -306 0
-424 -307 0
-425 -308 0
-426 -309 0
-478 -307 0
-479 -308 0
-480 -309 0
-406 -310 0
-407 -311 0
-408 -312 0
-478 -310 0
-479 -311 0
-480 -312 0
-406 -313 0
-407 -314 0
-408 -315 0
-412 -316 0
-413 -317 0
-414 -318 0
-505 -316 0
-506 -317 0
-507 -318 0
-325 -322 0
-326 -323 0
-327 -324 0
-436 -325 0
-437 -326 0
-438 -327 0
-478 -325 0
-479 -326 0
-480 -327 0
-418 -328 0
-419 -329 0
-420 -330 0
-508 -328 0
-509 -329 0
-510 -330 0
-493 -331 0
-494 -332 0
-495 -333 0
-514 -331 0
-515 -332 0
-516 -333 0
-367 -334 0
-368 -335 0
-369 -336 0
-421 -334 0
-422 -335 0
-423 -336 0
-436 -334 0
-437 -335 0
-438 -336 0
-472 -340 0
-473 -341 0
-474 -342 0
-523 -340 0
-524 -341 0
-525 -342 0
-403 -343 0
-404 -344 0
-405 -345 0
-469 -343 0
-470 -344 0
-471 -345 0
-481 -343 0
-482 -344 0
-483 -345 0
-478 -346 0
-479 -347 0
-480 -348 0
-481 -349 0
-482 -350 0
-483 -351 0
-376 -358 0
-377 -359 0
-378 -360 0
-406 -358 0
-407 -359 0
-408 -360 0
-430 -358 0
-431 -359 0
-432 -360 0
-463 -358 0
-464 -359 0
-465 -360 0
-469 -364 0
-470 -365 0
-471 -366 0
-421 -367 0
-422 -368 0
-423 -369 0
-424 -370 0
-425 -371 0
-426 -372 0
-481 -373 0
-482 -374 0
-483 -375 0
-451 -379 0
-452 -380 0
-453 -381 0
-514 -379 0
-515 -380 0
-516 -381 0
-391 -385 0
-392 -386 0
-393 -387 0
-421 -385 0
-422 -386 0
-423 -387 0
-400 -388 0
-401 -389 0
-402 -390 0
-418 -388 0
-419 -389 0
-420 -390 0
-418 -391 0
-419 -392 0
-420 -393 0
-466 -394 0
-467 -395 0
-468 -396 0
-496 -394 0
-497 -395 0
-498 -396 0
-508 -394 0
-509 -395 0
-510 -396 0
-490 -397 0
-491 -398 0
-492 -399 0
-427 -403 0
-428 -404 0
-429 -405 0
-445 -403 0
-446 -404 0
-447 -405 0
-517 -403 0
-518 -404 0
-519 -405 0
-523 -403 0
-524 -404 0
-525 -405 0
-451 -406 0
-452 -407 0
-453 -408 0
-463 -409 0
-464 -410 0
-465 -411 0
-499 -409 0
-500 -410 0
-501 -411 0
-484 -412 0
-485 -413 0
-486 -414 0
-430 -415 0
-431 -416 0
-432 -417 0
-436 -418 0
-437 -419 0
-438 -420 0
-460 -424 0
-461 -425 0
-462 -426 0
-511 -424 0
-512 -425 0
-513 -426 0
-487 -430 0
-488 -431 0
-489 -432 0
-487 -454 0
-488 -455 0
-489 -456 0
-499 -460 0
-500 -461 0
-501 -462 0
-517 -463 0
-518 -464 0
-519 -465 0
-475 -469 0
-476 -470 0
-477 -471 0
-520 -490 0
-521 -491 0
-522 -492 0
-505 -496 0
-506 -497 0
-507 -498 0
-508 -502 0
-509 -503 0
-510 -504 0
